p cnf 336 1138
c p weight -133 1 0
c p weight 133 -1 0
c p weight 137 6.12323399573676603586882014729198302312846062338790031898128063403419218957424163818359375E-17 0
c p weight -137 1 0
c p weight 138 1 0
c p weight -138 1 0
c p weight -135 1 0
c p weight 135 -1 0
c p weight -139 1 0
c p weight 139 -1 0
c p weight -141 1 0
c p weight 141 -1 0
c p weight -144 1 0
c p weight 144 -1 0
c p weight -147 1 0
c p weight 147 -1 0
c p weight -150 1 0
c p weight 150 -1 0
c p weight -153 1 0
c p weight 153 -1 0
c p weight -156 1 0
c p weight 156 -1 0
c p weight -159 1 0
c p weight 159 -1 0
c p weight -162 1 0
c p weight 162 -1 0
c p weight -165 1 0
c p weight 165 -1 0
c p weight -168 1 0
c p weight 168 -1 0
c p weight -171 1 0
c p weight 171 -1 0
c p weight -174 1 0
c p weight 174 -1 0
c p weight -177 1 0
c p weight 177 -1 0
c p weight -180 1 0
c p weight 180 -1 0
c p weight -183 1 0
c p weight 183 -1 0
c p weight -186 1 0
c p weight 186 -1 0
c p weight -189 1 0
c p weight 189 -1 0
c p weight -192 1 0
c p weight 192 -1 0
c p weight -195 1 0
c p weight 195 -1 0
c p weight -198 1 0
c p weight 198 -1 0
c p weight -201 1 0
c p weight 201 -1 0
c p weight -204 1 0
c p weight 204 -1 0
c p weight -207 1 0
c p weight 207 -1 0
c p weight -210 1 0
c p weight 210 -1 0
c p weight -213 1 0
c p weight 213 -1 0
c p weight -216 1 0
c p weight 216 -1 0
c p weight -219 1 0
c p weight 219 -1 0
c p weight -222 1 0
c p weight 222 -1 0
c p weight -225 1 0
c p weight 225 -1 0
c p weight -228 1 0
c p weight 228 -1 0
c p weight -231 1 0
c p weight 231 -1 0
c p weight -234 1 0
c p weight 234 -1 0
c p weight -237 1 0
c p weight 237 -1 0
c p weight -240 1 0
c p weight 240 -1 0
c p weight -243 1 0
c p weight 243 -1 0
c p weight -246 1 0
c p weight 246 -1 0
c p weight -249 1 0
c p weight 249 -1 0
c p weight -252 1 0
c p weight 252 -1 0
c p weight -255 1 0
c p weight 255 -1 0
c p weight -258 1 0
c p weight 258 -1 0
c p weight -261 1 0
c p weight 261 -1 0
c p weight -264 1 0
c p weight 264 -1 0
c p weight -267 1 0
c p weight 267 -1 0
c p weight -270 1 0
c p weight 270 -1 0
c p weight -273 1 0
c p weight 273 -1 0
c p weight -276 1 0
c p weight 276 -1 0
c p weight -279 1 0
c p weight 279 -1 0
c p weight -282 1 0
c p weight 282 -1 0
c p weight -285 1 0
c p weight 285 -1 0
c p weight -288 1 0
c p weight 288 -1 0
c p weight -291 1 0
c p weight 291 -1 0
c p weight -294 1 0
c p weight 294 -1 0
c p weight -297 1 0
c p weight 297 -1 0
c p weight -300 1 0
c p weight 300 -1 0
c p weight -303 1 0
c p weight 303 -1 0
c p weight -306 1 0
c p weight 306 -1 0
c p weight -309 1 0
c p weight 309 -1 0
c p weight -312 1 0
c p weight 312 -1 0
c p weight -315 1 0
c p weight 315 -1 0
c p weight -318 1 0
c p weight 318 -1 0
c p weight -321 1 0
c p weight 321 -1 0
c p weight -324 1 0
c p weight 324 -1 0
c p weight -327 1 0
c p weight 327 -1 0
c p weight -330 1 0
c p weight 330 -1 0
c p weight -333 1 0
c p weight 333 -1 0
c p weight 336 0.5 0
c p weight -336 1 0
336 0
-131 0
-129 0
-127 0
-125 0
-123 0
-121 0
-119 0
-117 0
-115 0
-113 0
-111 0
-109 0
-107 0
-105 0
-103 0
-101 0
-99 0
-97 0
-95 0
-93 0
-91 0
-89 0
-87 0
-85 0
-83 0
-81 0
-79 0
-77 0
-75 0
-73 0
-71 0
-69 0
-67 0
-65 0
-63 0
-61 0
-59 0
-57 0
-55 0
-53 0
-51 0
-49 0
-47 0
-45 0
-43 0
-41 0
-39 0
-37 0
-35 0
-33 0
-31 0
-29 0
-27 0
-25 0
-23 0
-21 0
-19 0
-17 0
-15 0
-13 0
-11 0
-9 0
-7 0
-5 0
-3 0
-1 0
-133 131 0
-133 132 0
133 -131 -132 0
134 131 -132 0
134 -131 132 0
-134 131 132 0
-134 -131 -132 0
-135 136 0
-135 134 0
-135 -131 0
135 -136 131 -134 0
136 -131 134 0
-136 131 134 0
-137 134 0
136 -137 -131 0
-136 -137 131 0
136 137 131 -134 0
-136 137 -131 -134 0
-138 134 0
136 -138 131 0
-136 -138 -131 0
136 138 -131 -134 0
-136 138 131 -134 0
-139 136 0
-139 134 0
139 -136 -134 0
140 136 -134 0
140 -136 134 0
-140 136 134 0
-140 -136 -134 0
-141 136 0
-141 130 0
-141 129 -140 0
-141 -129 140 0
141 -136 129 140 -130 0
141 -136 -129 -140 -130 0
143 136 -129 0
143 -136 129 0
-143 136 129 0
-143 -136 -129 0
142 140 -130 0
142 -140 130 0
-142 140 130 0
-142 -140 -130 0
-144 143 0
-144 128 0
-144 127 -130 0
-144 -127 130 0
144 -143 127 130 -128 0
144 -143 -127 -130 -128 0
146 143 -127 0
146 -143 127 0
-146 143 127 0
-146 -143 -127 0
145 130 -128 0
145 -130 128 0
-145 130 128 0
-145 -130 -128 0
-147 146 0
-147 126 0
-147 125 -128 0
-147 -125 128 0
147 -146 125 128 -126 0
147 -146 -125 -128 -126 0
149 146 -125 0
149 -146 125 0
-149 146 125 0
-149 -146 -125 0
148 128 -126 0
148 -128 126 0
-148 128 126 0
-148 -128 -126 0
-150 149 0
-150 124 0
-150 123 -126 0
-150 -123 126 0
150 -149 123 126 -124 0
150 -149 -123 -126 -124 0
152 149 -123 0
152 -149 123 0
-152 149 123 0
-152 -149 -123 0
151 126 -124 0
151 -126 124 0
-151 126 124 0
-151 -126 -124 0
-153 152 0
-153 122 0
-153 121 -124 0
-153 -121 124 0
153 -152 121 124 -122 0
153 -152 -121 -124 -122 0
155 152 -121 0
155 -152 121 0
-155 152 121 0
-155 -152 -121 0
154 124 -122 0
154 -124 122 0
-154 124 122 0
-154 -124 -122 0
-156 155 0
-156 120 0
-156 119 -122 0
-156 -119 122 0
156 -155 119 122 -120 0
156 -155 -119 -122 -120 0
158 155 -119 0
158 -155 119 0
-158 155 119 0
-158 -155 -119 0
157 122 -120 0
157 -122 120 0
-157 122 120 0
-157 -122 -120 0
-159 158 0
-159 118 0
-159 117 -120 0
-159 -117 120 0
159 -158 117 120 -118 0
159 -158 -117 -120 -118 0
161 158 -117 0
161 -158 117 0
-161 158 117 0
-161 -158 -117 0
160 120 -118 0
160 -120 118 0
-160 120 118 0
-160 -120 -118 0
-162 161 0
-162 116 0
-162 115 -118 0
-162 -115 118 0
162 -161 115 118 -116 0
162 -161 -115 -118 -116 0
164 161 -115 0
164 -161 115 0
-164 161 115 0
-164 -161 -115 0
163 118 -116 0
163 -118 116 0
-163 118 116 0
-163 -118 -116 0
-165 164 0
-165 114 0
-165 113 -116 0
-165 -113 116 0
165 -164 113 116 -114 0
165 -164 -113 -116 -114 0
167 164 -113 0
167 -164 113 0
-167 164 113 0
-167 -164 -113 0
166 116 -114 0
166 -116 114 0
-166 116 114 0
-166 -116 -114 0
-168 167 0
-168 112 0
-168 111 -114 0
-168 -111 114 0
168 -167 111 114 -112 0
168 -167 -111 -114 -112 0
170 167 -111 0
170 -167 111 0
-170 167 111 0
-170 -167 -111 0
169 114 -112 0
169 -114 112 0
-169 114 112 0
-169 -114 -112 0
-171 170 0
-171 110 0
-171 109 -112 0
-171 -109 112 0
171 -170 109 112 -110 0
171 -170 -109 -112 -110 0
173 170 -109 0
173 -170 109 0
-173 170 109 0
-173 -170 -109 0
172 112 -110 0
172 -112 110 0
-172 112 110 0
-172 -112 -110 0
-174 173 0
-174 108 0
-174 107 -110 0
-174 -107 110 0
174 -173 107 110 -108 0
174 -173 -107 -110 -108 0
176 173 -107 0
176 -173 107 0
-176 173 107 0
-176 -173 -107 0
175 110 -108 0
175 -110 108 0
-175 110 108 0
-175 -110 -108 0
-177 176 0
-177 106 0
-177 105 -108 0
-177 -105 108 0
177 -176 105 108 -106 0
177 -176 -105 -108 -106 0
179 176 -105 0
179 -176 105 0
-179 176 105 0
-179 -176 -105 0
178 108 -106 0
178 -108 106 0
-178 108 106 0
-178 -108 -106 0
-180 179 0
-180 104 0
-180 103 -106 0
-180 -103 106 0
180 -179 103 106 -104 0
180 -179 -103 -106 -104 0
182 179 -103 0
182 -179 103 0
-182 179 103 0
-182 -179 -103 0
181 106 -104 0
181 -106 104 0
-181 106 104 0
-181 -106 -104 0
-183 182 0
-183 102 0
-183 101 -104 0
-183 -101 104 0
183 -182 101 104 -102 0
183 -182 -101 -104 -102 0
185 182 -101 0
185 -182 101 0
-185 182 101 0
-185 -182 -101 0
184 104 -102 0
184 -104 102 0
-184 104 102 0
-184 -104 -102 0
-186 185 0
-186 100 0
-186 99 -102 0
-186 -99 102 0
186 -185 99 102 -100 0
186 -185 -99 -102 -100 0
188 185 -99 0
188 -185 99 0
-188 185 99 0
-188 -185 -99 0
187 102 -100 0
187 -102 100 0
-187 102 100 0
-187 -102 -100 0
-189 188 0
-189 98 0
-189 97 -100 0
-189 -97 100 0
189 -188 97 100 -98 0
189 -188 -97 -100 -98 0
191 188 -97 0
191 -188 97 0
-191 188 97 0
-191 -188 -97 0
190 100 -98 0
190 -100 98 0
-190 100 98 0
-190 -100 -98 0
-192 191 0
-192 96 0
-192 95 -98 0
-192 -95 98 0
192 -191 95 98 -96 0
192 -191 -95 -98 -96 0
194 191 -95 0
194 -191 95 0
-194 191 95 0
-194 -191 -95 0
193 98 -96 0
193 -98 96 0
-193 98 96 0
-193 -98 -96 0
-195 194 0
-195 94 0
-195 93 -96 0
-195 -93 96 0
195 -194 93 96 -94 0
195 -194 -93 -96 -94 0
197 194 -93 0
197 -194 93 0
-197 194 93 0
-197 -194 -93 0
196 96 -94 0
196 -96 94 0
-196 96 94 0
-196 -96 -94 0
-198 197 0
-198 92 0
-198 91 -94 0
-198 -91 94 0
198 -197 91 94 -92 0
198 -197 -91 -94 -92 0
200 197 -91 0
200 -197 91 0
-200 197 91 0
-200 -197 -91 0
199 94 -92 0
199 -94 92 0
-199 94 92 0
-199 -94 -92 0
-201 200 0
-201 90 0
-201 89 -92 0
-201 -89 92 0
201 -200 89 92 -90 0
201 -200 -89 -92 -90 0
203 200 -89 0
203 -200 89 0
-203 200 89 0
-203 -200 -89 0
202 92 -90 0
202 -92 90 0
-202 92 90 0
-202 -92 -90 0
-204 203 0
-204 88 0
-204 87 -90 0
-204 -87 90 0
204 -203 87 90 -88 0
204 -203 -87 -90 -88 0
206 203 -87 0
206 -203 87 0
-206 203 87 0
-206 -203 -87 0
205 90 -88 0
205 -90 88 0
-205 90 88 0
-205 -90 -88 0
-207 206 0
-207 86 0
-207 85 -88 0
-207 -85 88 0
207 -206 85 88 -86 0
207 -206 -85 -88 -86 0
209 206 -85 0
209 -206 85 0
-209 206 85 0
-209 -206 -85 0
208 88 -86 0
208 -88 86 0
-208 88 86 0
-208 -88 -86 0
-210 209 0
-210 84 0
-210 83 -86 0
-210 -83 86 0
210 -209 83 86 -84 0
210 -209 -83 -86 -84 0
212 209 -83 0
212 -209 83 0
-212 209 83 0
-212 -209 -83 0
211 86 -84 0
211 -86 84 0
-211 86 84 0
-211 -86 -84 0
-213 212 0
-213 82 0
-213 81 -84 0
-213 -81 84 0
213 -212 81 84 -82 0
213 -212 -81 -84 -82 0
215 212 -81 0
215 -212 81 0
-215 212 81 0
-215 -212 -81 0
214 84 -82 0
214 -84 82 0
-214 84 82 0
-214 -84 -82 0
-216 215 0
-216 80 0
-216 79 -82 0
-216 -79 82 0
216 -215 79 82 -80 0
216 -215 -79 -82 -80 0
218 215 -79 0
218 -215 79 0
-218 215 79 0
-218 -215 -79 0
217 82 -80 0
217 -82 80 0
-217 82 80 0
-217 -82 -80 0
-219 218 0
-219 78 0
-219 77 -80 0
-219 -77 80 0
219 -218 77 80 -78 0
219 -218 -77 -80 -78 0
221 218 -77 0
221 -218 77 0
-221 218 77 0
-221 -218 -77 0
220 80 -78 0
220 -80 78 0
-220 80 78 0
-220 -80 -78 0
-222 221 0
-222 76 0
-222 75 -78 0
-222 -75 78 0
222 -221 75 78 -76 0
222 -221 -75 -78 -76 0
224 221 -75 0
224 -221 75 0
-224 221 75 0
-224 -221 -75 0
223 78 -76 0
223 -78 76 0
-223 78 76 0
-223 -78 -76 0
-225 224 0
-225 74 0
-225 73 -76 0
-225 -73 76 0
225 -224 73 76 -74 0
225 -224 -73 -76 -74 0
227 224 -73 0
227 -224 73 0
-227 224 73 0
-227 -224 -73 0
226 76 -74 0
226 -76 74 0
-226 76 74 0
-226 -76 -74 0
-228 227 0
-228 72 0
-228 71 -74 0
-228 -71 74 0
228 -227 71 74 -72 0
228 -227 -71 -74 -72 0
230 227 -71 0
230 -227 71 0
-230 227 71 0
-230 -227 -71 0
229 74 -72 0
229 -74 72 0
-229 74 72 0
-229 -74 -72 0
-231 230 0
-231 70 0
-231 69 -72 0
-231 -69 72 0
231 -230 69 72 -70 0
231 -230 -69 -72 -70 0
233 230 -69 0
233 -230 69 0
-233 230 69 0
-233 -230 -69 0
232 72 -70 0
232 -72 70 0
-232 72 70 0
-232 -72 -70 0
-234 233 0
-234 68 0
-234 67 -70 0
-234 -67 70 0
234 -233 67 70 -68 0
234 -233 -67 -70 -68 0
236 233 -67 0
236 -233 67 0
-236 233 67 0
-236 -233 -67 0
235 70 -68 0
235 -70 68 0
-235 70 68 0
-235 -70 -68 0
-237 236 0
-237 66 0
-237 65 -68 0
-237 -65 68 0
237 -236 65 68 -66 0
237 -236 -65 -68 -66 0
239 236 -65 0
239 -236 65 0
-239 236 65 0
-239 -236 -65 0
238 68 -66 0
238 -68 66 0
-238 68 66 0
-238 -68 -66 0
-240 239 0
-240 64 0
-240 63 -66 0
-240 -63 66 0
240 -239 63 66 -64 0
240 -239 -63 -66 -64 0
242 239 -63 0
242 -239 63 0
-242 239 63 0
-242 -239 -63 0
241 66 -64 0
241 -66 64 0
-241 66 64 0
-241 -66 -64 0
-243 242 0
-243 62 0
-243 61 -64 0
-243 -61 64 0
243 -242 61 64 -62 0
243 -242 -61 -64 -62 0
245 242 -61 0
245 -242 61 0
-245 242 61 0
-245 -242 -61 0
244 64 -62 0
244 -64 62 0
-244 64 62 0
-244 -64 -62 0
-246 245 0
-246 60 0
-246 59 -62 0
-246 -59 62 0
246 -245 59 62 -60 0
246 -245 -59 -62 -60 0
248 245 -59 0
248 -245 59 0
-248 245 59 0
-248 -245 -59 0
247 62 -60 0
247 -62 60 0
-247 62 60 0
-247 -62 -60 0
-249 248 0
-249 58 0
-249 57 -60 0
-249 -57 60 0
249 -248 57 60 -58 0
249 -248 -57 -60 -58 0
251 248 -57 0
251 -248 57 0
-251 248 57 0
-251 -248 -57 0
250 60 -58 0
250 -60 58 0
-250 60 58 0
-250 -60 -58 0
-252 251 0
-252 56 0
-252 55 -58 0
-252 -55 58 0
252 -251 55 58 -56 0
252 -251 -55 -58 -56 0
254 251 -55 0
254 -251 55 0
-254 251 55 0
-254 -251 -55 0
253 58 -56 0
253 -58 56 0
-253 58 56 0
-253 -58 -56 0
-255 254 0
-255 54 0
-255 53 -56 0
-255 -53 56 0
255 -254 53 56 -54 0
255 -254 -53 -56 -54 0
257 254 -53 0
257 -254 53 0
-257 254 53 0
-257 -254 -53 0
256 56 -54 0
256 -56 54 0
-256 56 54 0
-256 -56 -54 0
-258 257 0
-258 52 0
-258 51 -54 0
-258 -51 54 0
258 -257 51 54 -52 0
258 -257 -51 -54 -52 0
260 257 -51 0
260 -257 51 0
-260 257 51 0
-260 -257 -51 0
259 54 -52 0
259 -54 52 0
-259 54 52 0
-259 -54 -52 0
-261 260 0
-261 50 0
-261 49 -52 0
-261 -49 52 0
261 -260 49 52 -50 0
261 -260 -49 -52 -50 0
263 260 -49 0
263 -260 49 0
-263 260 49 0
-263 -260 -49 0
262 52 -50 0
262 -52 50 0
-262 52 50 0
-262 -52 -50 0
-264 263 0
-264 48 0
-264 47 -50 0
-264 -47 50 0
264 -263 47 50 -48 0
264 -263 -47 -50 -48 0
266 263 -47 0
266 -263 47 0
-266 263 47 0
-266 -263 -47 0
265 50 -48 0
265 -50 48 0
-265 50 48 0
-265 -50 -48 0
-267 266 0
-267 46 0
-267 45 -48 0
-267 -45 48 0
267 -266 45 48 -46 0
267 -266 -45 -48 -46 0
269 266 -45 0
269 -266 45 0
-269 266 45 0
-269 -266 -45 0
268 48 -46 0
268 -48 46 0
-268 48 46 0
-268 -48 -46 0
-270 269 0
-270 44 0
-270 43 -46 0
-270 -43 46 0
270 -269 43 46 -44 0
270 -269 -43 -46 -44 0
272 269 -43 0
272 -269 43 0
-272 269 43 0
-272 -269 -43 0
271 46 -44 0
271 -46 44 0
-271 46 44 0
-271 -46 -44 0
-273 272 0
-273 42 0
-273 41 -44 0
-273 -41 44 0
273 -272 41 44 -42 0
273 -272 -41 -44 -42 0
275 272 -41 0
275 -272 41 0
-275 272 41 0
-275 -272 -41 0
274 44 -42 0
274 -44 42 0
-274 44 42 0
-274 -44 -42 0
-276 275 0
-276 40 0
-276 39 -42 0
-276 -39 42 0
276 -275 39 42 -40 0
276 -275 -39 -42 -40 0
278 275 -39 0
278 -275 39 0
-278 275 39 0
-278 -275 -39 0
277 42 -40 0
277 -42 40 0
-277 42 40 0
-277 -42 -40 0
-279 278 0
-279 38 0
-279 37 -40 0
-279 -37 40 0
279 -278 37 40 -38 0
279 -278 -37 -40 -38 0
281 278 -37 0
281 -278 37 0
-281 278 37 0
-281 -278 -37 0
280 40 -38 0
280 -40 38 0
-280 40 38 0
-280 -40 -38 0
-282 281 0
-282 36 0
-282 35 -38 0
-282 -35 38 0
282 -281 35 38 -36 0
282 -281 -35 -38 -36 0
284 281 -35 0
284 -281 35 0
-284 281 35 0
-284 -281 -35 0
283 38 -36 0
283 -38 36 0
-283 38 36 0
-283 -38 -36 0
-285 284 0
-285 34 0
-285 33 -36 0
-285 -33 36 0
285 -284 33 36 -34 0
285 -284 -33 -36 -34 0
287 284 -33 0
287 -284 33 0
-287 284 33 0
-287 -284 -33 0
286 36 -34 0
286 -36 34 0
-286 36 34 0
-286 -36 -34 0
-288 287 0
-288 32 0
-288 31 -34 0
-288 -31 34 0
288 -287 31 34 -32 0
288 -287 -31 -34 -32 0
290 287 -31 0
290 -287 31 0
-290 287 31 0
-290 -287 -31 0
289 34 -32 0
289 -34 32 0
-289 34 32 0
-289 -34 -32 0
-291 290 0
-291 30 0
-291 29 -32 0
-291 -29 32 0
291 -290 29 32 -30 0
291 -290 -29 -32 -30 0
293 290 -29 0
293 -290 29 0
-293 290 29 0
-293 -290 -29 0
292 32 -30 0
292 -32 30 0
-292 32 30 0
-292 -32 -30 0
-294 293 0
-294 28 0
-294 27 -30 0
-294 -27 30 0
294 -293 27 30 -28 0
294 -293 -27 -30 -28 0
296 293 -27 0
296 -293 27 0
-296 293 27 0
-296 -293 -27 0
295 30 -28 0
295 -30 28 0
-295 30 28 0
-295 -30 -28 0
-297 296 0
-297 26 0
-297 25 -28 0
-297 -25 28 0
297 -296 25 28 -26 0
297 -296 -25 -28 -26 0
299 296 -25 0
299 -296 25 0
-299 296 25 0
-299 -296 -25 0
298 28 -26 0
298 -28 26 0
-298 28 26 0
-298 -28 -26 0
-300 299 0
-300 24 0
-300 23 -26 0
-300 -23 26 0
300 -299 23 26 -24 0
300 -299 -23 -26 -24 0
302 299 -23 0
302 -299 23 0
-302 299 23 0
-302 -299 -23 0
301 26 -24 0
301 -26 24 0
-301 26 24 0
-301 -26 -24 0
-303 302 0
-303 22 0
-303 21 -24 0
-303 -21 24 0
303 -302 21 24 -22 0
303 -302 -21 -24 -22 0
305 302 -21 0
305 -302 21 0
-305 302 21 0
-305 -302 -21 0
304 24 -22 0
304 -24 22 0
-304 24 22 0
-304 -24 -22 0
-306 305 0
-306 20 0
-306 19 -22 0
-306 -19 22 0
306 -305 19 22 -20 0
306 -305 -19 -22 -20 0
308 305 -19 0
308 -305 19 0
-308 305 19 0
-308 -305 -19 0
307 22 -20 0
307 -22 20 0
-307 22 20 0
-307 -22 -20 0
-309 308 0
-309 18 0
-309 17 -20 0
-309 -17 20 0
309 -308 17 20 -18 0
309 -308 -17 -20 -18 0
311 308 -17 0
311 -308 17 0
-311 308 17 0
-311 -308 -17 0
310 20 -18 0
310 -20 18 0
-310 20 18 0
-310 -20 -18 0
-312 311 0
-312 16 0
-312 15 -18 0
-312 -15 18 0
312 -311 15 18 -16 0
312 -311 -15 -18 -16 0
314 311 -15 0
314 -311 15 0
-314 311 15 0
-314 -311 -15 0
313 18 -16 0
313 -18 16 0
-313 18 16 0
-313 -18 -16 0
-315 314 0
-315 14 0
-315 13 -16 0
-315 -13 16 0
315 -314 13 16 -14 0
315 -314 -13 -16 -14 0
317 314 -13 0
317 -314 13 0
-317 314 13 0
-317 -314 -13 0
316 16 -14 0
316 -16 14 0
-316 16 14 0
-316 -16 -14 0
-318 317 0
-318 12 0
-318 11 -14 0
-318 -11 14 0
318 -317 11 14 -12 0
318 -317 -11 -14 -12 0
320 317 -11 0
320 -317 11 0
-320 317 11 0
-320 -317 -11 0
319 14 -12 0
319 -14 12 0
-319 14 12 0
-319 -14 -12 0
-321 320 0
-321 10 0
-321 9 -12 0
-321 -9 12 0
321 -320 9 12 -10 0
321 -320 -9 -12 -10 0
323 320 -9 0
323 -320 9 0
-323 320 9 0
-323 -320 -9 0
322 12 -10 0
322 -12 10 0
-322 12 10 0
-322 -12 -10 0
-324 323 0
-324 8 0
-324 7 -10 0
-324 -7 10 0
324 -323 7 10 -8 0
324 -323 -7 -10 -8 0
326 323 -7 0
326 -323 7 0
-326 323 7 0
-326 -323 -7 0
325 10 -8 0
325 -10 8 0
-325 10 8 0
-325 -10 -8 0
-327 326 0
-327 6 0
-327 5 -8 0
-327 -5 8 0
327 -326 5 8 -6 0
327 -326 -5 -8 -6 0
329 326 -5 0
329 -326 5 0
-329 326 5 0
-329 -326 -5 0
328 8 -6 0
328 -8 6 0
-328 8 6 0
-328 -8 -6 0
-330 329 0
-330 4 0
-330 3 -6 0
-330 -3 6 0
330 -329 3 6 -4 0
330 -329 -3 -6 -4 0
332 329 -3 0
332 -329 3 0
-332 329 3 0
-332 -329 -3 0
331 6 -4 0
331 -6 4 0
-331 6 4 0
-331 -6 -4 0
-333 332 0
-333 2 0
-333 1 -4 0
-333 -1 4 0
333 -332 1 4 -2 0
333 -332 -1 -4 -2 0
335 332 -1 0
335 -332 1 0
-335 332 1 0
-335 -332 -1 0
334 4 -2 0
334 -4 2 0
-334 4 2 0
-334 -4 -2 0
-335 0
-332 0
-334 0
-329 0
-331 0
-326 0
-328 0
-323 0
-325 0
-320 0
-322 0
-317 0
-319 0
-314 0
-316 0
-311 0
-313 0
-308 0
-310 0
-305 0
-307 0
-302 0
-304 0
-299 0
-301 0
-296 0
-298 0
-293 0
-295 0
-290 0
-292 0
-287 0
-289 0
-284 0
-286 0
-281 0
-283 0
-278 0
-280 0
-275 0
-277 0
-272 0
-274 0
-269 0
-271 0
-266 0
-268 0
-263 0
-265 0
-260 0
-262 0
-257 0
-259 0
-254 0
-256 0
-251 0
-253 0
-248 0
-250 0
-245 0
-247 0
-242 0
-244 0
-239 0
-241 0
-236 0
-238 0
-233 0
-235 0
-230 0
-232 0
-227 0
-229 0
-224 0
-226 0
-221 0
-223 0
-218 0
-220 0
-215 0
-217 0
-212 0
-214 0
-209 0
-211 0
-206 0
-208 0
-203 0
-205 0
-200 0
-202 0
-197 0
-199 0
-194 0
-196 0
-191 0
-193 0
-188 0
-190 0
-185 0
-187 0
-182 0
-184 0
-179 0
-181 0
-176 0
-178 0
-173 0
-175 0
-170 0
-172 0
-167 0
-169 0
-164 0
-166 0
-161 0
-163 0
-158 0
-160 0
-155 0
-157 0
-152 0
-154 0
-149 0
-151 0
-146 0
-148 0
-143 0
-145 0
-136 0
-142 0
